500
1000
626
626
625
625
622
621
621
621
620
620
620
619
618
616
616
616
616
615
615
611
610
610
608
606
603
602
601
599
598
597
597
595
594
594
592
591
589
586
586
584
581
578
578
578
577
575
574
573
570
570
568
564
562
561
560
558
556
555
554
553
552
551
549
547
547
546
546
543
542
541
540
539
539
538
536
535
533
532
530
529
529
528
527
526
523
522
521
520
517
516
515
515
512
512
512
512
511
511
510
509
509
506
505
503
503
503
502
502
501
501
501
501
499
498
496
495
493
492
492
491
489
489
488
488
488
487
487
484
480
480
478
477
476
476
474
474
474
474
472
471
468
468
465
464
464
463
463
462
461
459
459
458
454
451
449
449
449
447
447
446
446
443
443
441
440
439
439
436
434
432
432
432
431
430
428
426
425
423
423
422
420
418
418
417
416
415
412
409
409
403
402
401
400
399
399
398
394
394
392
392
392
391
388
386
384
384
384
382
382
381
380
379
379
378
377
377
374
374
373
373
372
371
370
370
370
369
368
368
367
367
367
366
366
366
363
363
363
363
362
361
361
360
360
358
357
357
356
355
355
350
350
349
348
347
345
345
342
341
340
339
337
336
336
335
334
333
331
331
329
329
327
324
323
323
316
316
313
312
311
309
309
307
304
302
301
297
296
295
294
293
293
292
292
290
289
288
286
286
283
281
279
278
278
276
272
272
272
270
269
268
267
265
265
263
262
260
259
258
258
254
252
252
252
248
248
246
246
245
244
244
241
241
240
239
237
236
231
230
229
228
224
223
220
218
218
218
217
216
215
215
214
214
212
211
211
211
209
209
206
206
204
203
200
198
194
193
193
193
193
192
191
189
189
189
188
188
187
187
187
187
186
183
182
181
180
179
179
178
178
177
174
173
170
170
169
167
166
164
164
164
161
160
159
158
158
157
157
157
157
156
155
153
152
151
151
150
148
147
144
142
140
137
136
134
134
133
130
130
129
129
128
127
127
127
124
124
124
124
123
121
118
115
115
115
112
112
110
105
104
103
101
100
100
99
98
94
94
94
93
93
93
86
85
84
83
82
81
81
81
79
78
78
77
75
73
71
65
64
64
63
63
62
60
59
57
56
56
54
53
53
53
49
48
45
45
42
42
41
39
36
